0 0 0 0
0 1 0 0
0 2 0 0
0 3 0 0
0 4 2 2
0 5 2 8
0 6 0 8
0 7 0 16
0 8 0 16
0 9 0 2
0 10 0 18
0 11 1 11
0 12 1 2
0 13 1 8
0 14 0 11
0 15 0 17
0 16 0 16
0 17 2 15
0 18 0 18
0 19 0 4
0 20 1 8
0 21 2 22
0 22 2 25
0 23 0 17
0 24 0 22
0 25 0 21
0 26 0 25
0 27 0 30
0 28 0 33
0 29 0 35
0 30 0 26
0 31 0 38
